s td 334 8 363
b 1 27 200 299
b 2 109 305 335
b 3 115 274 318
b 4 51 53 140
b 5 51 53 346
b 6 113 162 291
b 7 228 231 261
b 8 145 184 277
b 9 16 113
b 10 274 344
b 11 249 334 339
b 12 1 346
b 13 1 229
b 14 28 71 351
b 15 21 65 359
b 16 5 135 289
b 17 9 135 320
b 18 16 210 242
b 19 21 65 217
b 20 28 71 182
b 21 39 71 182
b 22 30 225 329
b 23 36 139 227
b 24 37 59 229
b 25 22 39 182
b 26 22 182 243
b 27 22 171 243
b 28 171 243 269
b 29 45 259 273
b 30 56 249 279
b 31 59 229 340
b 32 65 217 284
b 33 54 73 328
b 34 85 174 332 343
b 35 174 294 332
b 36 211 294
b 37 88 97 131
b 38 7 12 96
b 39 111 289 362
b 40 114 187 308
b 41 60 125 273
b 42 97 131 255
b 43 122 139 227
b 44 145 184 358
b 45 31 149 300
b 46 110 163 197
b 47 95 165 280
b 48 166 197 226
b 49 197 226 344
b 50 171 200 269
b 51 200 269 299
b 52 269 300
b 53 184 211 358
b 54 153 187 293 308
b 55 93 153 308
b 56 190 247 280
b 57 110 197 226
b 58 108 211 358
b 59 54 216 297
b 60 110 122 226
b 61 66 228 261
b 62 66 261 333
b 63 66 99 333
b 64 99 333 347
b 65 99 227 347
b 66 63 227 347
b 67 63 227 290
b 68 229 255 340
b 69 232 305 362
b 70 221 244 307
b 71 247 279 280
b 72 249 279 339
b 73 31 41 254 258
b 74 31 41 300
b 75 97 255 340
b 76 279 280 339
b 77 95 280 339
b 78 41 300 355
b 79 305 335 362
b 80 297 335 362
b 81 93 152 308
b 82 54 95 328
b 83 95 97 339
b 84 95 97 340
b 85 54 95 97
b 86 54 97 143
b 87 289 297 362
b 88 7 12 89 142
b 89 10 76 283 331
b 90 76 143 283 331
b 91 2 17 35 47 151 170 198 350
b 92 17 47 151 198 290 306 345 350
b 93 17 47 151 198 260 290 306 345
b 94 17 47 127 151 260 290
b 95 127 150 151 260 290
b 96 117 127 150 151 260
b 97 74 117 127 150 260
b 98 74 117 127 150 239
b 99 74 127 150 239 342
b 100 44 74 127 239 342
b 101 3 44 74 342
b 102 8 44 127 239 342
b 103 8 127 203 239
b 104 8 44 127 213 342
b 105 8 127 213 220
b 106 74 150 178 342
b 107 74 117 239 240
b 108 74 117 132 150 260
b 109 19 117 132 150 260
b 110 19 117 132 251
b 111 17 47 127 151 224
b 112 17 47 151 191 224
b 113 17 40 151 191 224
b 114 14 40 191 224
b 115 40 134 151 224
b 116 17 40 191 246
b 117 17 47 103 191 224
b 118 47 103 169 224
b 119 47 103 167 169
b 120 47 106 167 169
b 121 52 106 167 169
b 122 52 106 121 169
b 123 52 167 169 172
b 124 52 106 167 193
b 125 17 103 116 191
b 126 192 198 260 306 345
b 127 192 306 311 345
b 128 143 188 288 290 306 345 348 350
b 129 142 143 188 288 290 306 329 348
b 130 142 143 188 234 288 329 348
b 131 142 143 186 188 234 288 329
b 132 82 142 143 186 234 288 329
b 133 24 82 142 143 186 234 329
b 134 24 82 142 143 234 284 329
b 135 24 82 142 143 173 284 285
b 136 24 82 90 173 284 285
b 137 24 82 90 155 284 285
b 138 24 90 126 155 284
b 139 90 126 155 263 284
b 140 11 126 155 263
b 141 90 217 263 284
b 142 126 263 284 325
b 143 24 82 155 176
b 144 90 155 230 285
b 145 82 135 142 143 173 285
b 146 135 142 173 285 301
b 147 12 135 142 173 301
b 148 12 89 142 173 301
b 149 12 135 301 320
b 150 26 135 173 285 301
b 151 26 173 199 301
b 152 64 82 135 143 285
b 153 54 64 135 143
b 154 64 82 136 285
b 155 24 234 252 284 329
b 156 24 124 234 252 329
b 157 124 225 252 329
b 158 24 124 252 304
b 159 141 252 284 329
b 160 82 186 288 354
b 161 186 188 234 288 313
b 162 129 186 288 313
b 163 142 154 290 306 329 348
b 164 75 104 142 154 290 329
b 165 42 75 104 142 154 290
b 166 42 75 104 142 290 360
b 167 42 75 142 179 290 360
b 168 42 142 146 179 290 360
b 169 42 142 146 179 227 290
b 170 13 142 146 179 227
b 171 13 142 179 227 257
b 172 13 110 142 227 257
b 173 13 110 227 257 278
b 174 110 122 227 278
b 175 13 237 257 278
b 176 110 253 257 278
b 177 13 142 179 257 307
b 178 13 179 221 307
b 179 42 146 215 227 290
b 180 29 146 215 227
b 181 42 146 179 256 360
b 182 146 168 179 256
b 183 75 179 189 360
b 184 75 104 310 360
b 185 42 104 154 270
b 186 42 104 118 270
b 187 75 104 154 219 329
b 188 104 154 219 336
b 189 34 154 306 348
b 190 143 188 288 303 306 345 348 350
b 191 38 188 303 306 348
b 192 38 137 188 303
b 193 76 143 188 288 303 350
b 194 76 188 273 288 303
b 195 60 188 273 303
b 196 76 259 273 303
b 197 76 143 283 350
b 198 236 303 345 350
b 199 2 17 35 47 170 317
b 200 17 20 35 47 170 316 317 330
b 201 17 20 35 164 316 317 330
b 202 17 20 35 107 164 316 317
b 203 20 35 107 161 164 317
b 204 20 35 107 138 161 317
b 205 35 107 138 161 201 317
b 206 4 138 161 201
b 207 35 107 138 201 295 317
b 208 100 138 201 295 317
b 209 100 138 201 276
b 210 100 138 317 357
b 211 107 201 212 295
b 212 20 23 138 161 317
b 213 23 80 138 317
b 214 17 35 107 164 272 316
b 215 101 107 164 272 316
b 216 101 107 266 272
b 217 101 107 164 267
b 218 20 47 92 170 223 316 317 330
b 219 20 47 92 223 248 316 330
b 220 20 47 92 238 248 316 330
b 221 47 92 157 238 248 316 330
b 222 47 157 238 248 275 316 330
b 223 157 238 275 309 316 330
b 224 6 238 309 330
b 225 160 275 309 316 330
b 226 160 265 275 316
b 227 157 206 275 309
b 228 47 157 248 275 298 316
b 229 72 275 298 316
b 230 47 157 248 298 356
b 231 128 157 248 298 356
b 232 128 248 349 356
b 233 242 248 349 356
b 234 92 157 238 248 314
b 235 70 157 248 314
b 236 157 238 271 314
b 237 92 238 292 314
b 238 20 78 92 170 223 317
b 239 78 92 112 170 223 317 326
b 240 46 78 92 112 223 326
b 241 46 78 92 112 175 326
b 242 78 79 92 175
b 243 46 112 130 175 326
b 244 46 119 130 175 326
b 245 119 130 158 175 326
b 246 119 130 144 158
b 247 46 119 130 355
b 248 46 119 156 355
b 249 112 123 130 326
b 250 46 92 205 223
b 251 50 78 112 170 317 326
b 252 50 78 112 170 214 326
b 253 50 112 170 214 323 326
b 254 50 112 170 204 214 323
b 255 50 87 170 204 214 323
b 256 50 87 170 204 208 323
b 257 50 84 87 170 204 208
b 258 50 62 84 170 204 208
b 259 62 84 133 204 208
b 260 62 133 204 208 264
b 261 62 133 204 264 358
b 262 49 62 133 358
b 263 133 204 208 264 296
b 264 133 264 296 363
b 265 50 62 84 170 181
b 266 62 170 181 233
b 267 50 170 181 322
b 268 87 214 323 327
b 269 57 112 204 323
b 270 50 78 214 326 353
b 271 50 78 86 319 353
b 272 50 58 86 319 353
b 273 58 86 194 353
b 274 50 58 207 319
b 275 58 86 319 324
b 276 78 81 86 319 353
b 277 78 81 209 319
b 278 67 214 326 353
b 279 2 35 151 170 198 350 352
b 280 2 35 151 198 352 361
b 281 2 151 198 235 352 361
b 282 2 102 235 352 361
b 283 2 55 102 235 352
b 284 55 83 102 235 352
b 285 15 83 102 235
b 286 55 83 102 159
b 287 55 83 268 352
b 288 102 235 302 361
b 289 151 198 235 341 361
b 290 198 235 321 341 361
b 291 235 312 321 361
b 292 235 281 312 321
b 293 151 198 282 341
b 294 35 151 180 361
b 295 18 77 132 195
b 296 77 132 150 195
b 297 25 42 68 270
b 298 42 68 118 270
b 299 32 49 62 358
b 300 33 62 170 233
b 301 41 185 337 355
b 302 48 87 214 327
b 303 46 69 205 223
b 304 19 77 132 150
b 305 91 119 158 175
b 306 98 201 212 295
b 307 105 241 307 315
b 308 142 241 307 315
b 309 108 204 264 358
b 310 120 202 262 286
b 311 94 202 262 286
b 312 94 202 204 262
b 313 112 202 204 262
b 314 57 112 204 262
b 315 43 147 196 287
b 316 183 186 288 354
b 317 93 185 337 355
b 318 93 250 337 355
b 319 46 93 148 250 355
b 320 46 93 148 177 250
b 321 93 177 250 338
b 322 61 148 177 250
b 323 46 93 152 177
b 324 43 196 287 297
b 325 43 287 289 297
b 326 43 54 289 297
b 327 43 54 64 289
b 328 54 64 135 289
b 329 210 242 349 356
b 330 8 213 218 220
b 331 75 104 222 310
b 332 142 241 257 307
b 333 245 281 312 321
b 334 46 148 156 355
1 51
2 79
3 10
4 5
5 12
6 9
7 61
8 44
9 18
10 49
11 72
12 13
13 68
14 20
15 19
16 328
17 149
18 329
19 32
20 21
21 25
22 157
23 43
24 31
25 26
26 27
27 28
28 50
29 196
30 72
31 68
32 141
33 82
34 35
35 36
36 58
37 42
38 88
39 87
40 54
41 195
42 75
43 174
44 53
45 74
46 57
47 77
48 57
49 57
50 51
51 52
52 78
53 58
54 55
55 81
56 71
57 60
58 309
59 326
60 174
61 62
62 63
63 64
64 65
65 66
66 67
67 169
68 75
69 79
70 178
71 76
72 76
73 74
74 78
75 84
76 77
77 83
78 301
79 80
80 87
81 323
82 85
83 85
84 85
85 86
86 153
87 325
88 148
89 90
90 197
91 92
91 199
91 279
92 93
92 128
93 94
93 126
94 95
94 111
95 96
96 97
97 98
97 108
98 99
98 107
99 100
99 106
100 101
100 102
102 103
102 104
104 105
105 330
108 109
109 304
109 110
111 112
112 113
112 117
113 114
113 115
113 116
117 118
117 125
118 119
119 120
120 121
121 122
121 123
121 124
126 127
128 129
128 190
129 130
129 163
130 131
131 132
131 161
132 133
132 160
133 134
134 135
134 155
135 136
135 145
136 137
137 138
137 143
137 144
138 139
139 140
139 141
139 142
145 146
145 152
146 147
146 150
147 148
147 149
150 151
152 153
152 154
153 328
155 156
155 159
156 157
156 158
160 316
161 162
163 164
163 189
164 165
164 187
165 166
165 185
166 167
166 184
167 168
167 183
168 169
168 181
169 170
169 179
170 171
171 172
171 177
172 173
173 174
173 175
173 176
177 332
177 178
179 180
181 182
184 331
185 186
186 298
187 188
190 191
190 193
190 198
191 192
193 194
193 197
194 195
194 196
199 200
200 201
200 218
201 202
202 203
202 214
203 204
204 205
204 212
205 206
205 207
207 208
207 211
208 209
208 210
211 306
212 213
214 215
215 216
215 217
218 219
218 238
219 220
220 221
221 222
221 234
222 223
222 228
223 224
223 225
223 227
225 226
228 229
228 230
230 231
231 232
232 233
233 329
234 235
234 236
234 237
238 239
239 240
239 251
240 241
240 250
241 242
241 243
243 244
243 249
244 245
244 247
245 305
245 246
247 248
248 334
250 303
251 252
252 253
252 270
253 254
254 255
254 269
255 256
255 268
256 257
257 258
258 259
258 265
259 260
260 261
260 263
261 309
261 262
262 299
263 264
265 266
265 267
266 300
268 302
269 314
270 271
270 278
271 272
271 276
272 273
272 274
272 275
276 277
279 280
280 281
280 294
281 282
281 289
282 283
282 288
283 284
284 285
284 286
284 287
289 290
289 293
290 291
291 292
292 333
295 296
296 304
297 298
301 317
307 308
308 332
310 311
311 312
312 313
313 314
315 324
317 318
318 319
319 334
319 320
320 321
320 322
320 323
324 325
325 326
326 327
327 328
